
Gurobi 11.0.3 (linux64) logging started Sun Nov 24 16:55:10 2024

Set parameter LogFile to value "/home/yihong/Coding/OR_SUC/SUC_results_bigM100000_thread4/case24_ieee_rts_theta0.5_epsilon0.05_gurobi_seed1460000_num_gen100_N_WDR100_load_scaling_factor1_exact_T12quadra_cost.txt"
Set parameter TimeLimit to value 3600
Gurobi Optimizer version 11.0.3 build v11.0.3rc0 (linux64 - "Ubuntu 20.04.6 LTS")

CPU model: AMD EPYC 7532 32-Core Processor, instruction set [SSE2|AVX|AVX2]
Thread count: 64 physical cores, 128 logical processors, using up to 4 threads

Optimize a model with 28631 rows, 15081 columns and 662130 nonzeros
Model fingerprint: 0xcc7f73dd
Model has 1200 quadratic constraints
Variable types: 13781 continuous, 1300 integer (1300 binary)
Coefficient statistics:
  Matrix range     [1e-04, 1e+05]
  QMatrix range    [2e-03, 8e-03]
  QLMatrix range   [4e-01, 6e+01]
  Objective range  [1e+00, 1e+00]
  Bounds range     [1e+00, 1e+00]
  RHS range        [1e+00, 1e+05]
Presolve removed 23630 rows and 6588 columns
Presolve time: 0.17s
Presolved: 5001 rows, 8493 columns, 28940 nonzeros
Presolved model has 1200 quadratic constraint(s)
Variable types: 7230 continuous, 1263 integer (1263 binary)

Root relaxation: objective 2.342063e+04, 5189 iterations, 0.09 seconds (0.13 work units)

    Nodes    |    Current Node    |     Objective Bounds      |     Work
 Expl Unexpl |  Obj  Depth IntInf | Incumbent    BestBd   Gap | It/Node Time

     0     0 23420.6331    0   24          - 23420.6331      -     -    0s
     0     0 97569.5380    0  536          - 97569.5380      -     -    0s
     0     0 97592.9430    0  534          - 97592.9430      -     -    0s
     0     0 245663.847    0  510          - 245663.847      -     -    0s
     0     0 245679.506    0  337          - 245679.506      -     -    0s
     0     0 245901.263    0  196          - 245901.263      -     -    0s
     0     0 245903.696    0  196          - 245903.696      -     -    0s
     0     0 245904.332    0  196          - 245904.332      -     -    0s
     0     0 245904.770    0  196          - 245904.770      -     -    0s
     0     2 245904.770    0  196          - 245904.770      -     -    1s
H  329   497                    246098.60593 245907.643  0.08%   9.7    2s
*  329   497             127    246098.60593 245907.643  0.08%   9.7    2s

Cutting planes:
  Gomory: 33
  Implied bound: 345
  MIR: 116
  Flow cover: 259
  Relax-and-lift: 20

Explored 590 nodes (19151 simplex iterations) in 2.48 seconds (3.23 work units)
Thread count was 4 (of 128 available processors)

Solution count 2: 246099 246099 

Optimal solution found (tolerance 1.00e-03)
Warning: max constraint violation (1.2947e-06) exceeds tolerance
Best objective 2.460986059341e+05, best bound 2.459088120998e+05, gap 0.0771%
